c nIsolatedPIs 0
c maxPI 32
p cnf 270 715
c gate 33 6 -22 0
6 -33 0
-22 -33 0
-6 22 33 0
c gate 34 5 -21 0
5 -34 0
-21 -34 0
-5 21 34 0
c gate 35 -3 19 0
-3 -35 0
19 -35 0
3 -19 35 0
c gate 36 -2 18 0
-2 -36 0
18 -36 0
2 -18 36 0
c gate 37 -1 17 0
-1 -37 0
17 -37 0
1 -17 37 0
c gate 38 -36 -37 0
-36 -38 0
-37 -38 0
36 37 38 0
c gate 39 2 -18 0
2 -39 0
-18 -39 0
-2 18 39 0
c gate 40 3 -19 0
3 -40 0
-19 -40 0
-3 19 40 0
c gate 41 -39 -40 0
-39 -41 0
-40 -41 0
39 40 41 0
c gate 42 -38 41 0
-38 -42 0
41 -42 0
38 -41 42 0
c gate 43 -35 -42 0
-35 -43 0
-42 -43 0
35 42 43 0
c gate 44 4 -20 0
4 -44 0
-20 -44 0
-4 20 44 0
c gate 45 -43 -44 0
-43 -45 0
-44 -45 0
43 44 45 0
c gate 46 -4 20 0
-4 -46 0
20 -46 0
4 -20 46 0
c gate 47 -45 -46 0
-45 -47 0
-46 -47 0
45 46 47 0
c gate 48 -34 -47 0
-34 -48 0
-47 -48 0
34 47 48 0
c gate 49 -6 22 0
-6 -49 0
22 -49 0
6 -22 49 0
c gate 50 -33 -49 0
-33 -50 0
-49 -50 0
33 49 50 0
c gate 51 -5 21 0
-5 -51 0
21 -51 0
5 -21 51 0
c gate 52 50 -51 0
50 -52 0
-51 -52 0
-50 51 52 0
c gate 53 -48 52 0
-48 -53 0
52 -53 0
48 -52 53 0
c gate 54 -33 -53 0
-33 -54 0
-53 -54 0
33 53 54 0
c gate 55 7 -23 0
7 -55 0
-23 -55 0
-7 23 55 0
c gate 56 -7 23 0
-7 -56 0
23 -56 0
7 -23 56 0
c gate 57 -55 -56 0
-55 -57 0
-56 -57 0
55 56 57 0
c gate 58 -54 57 0
-54 -58 0
57 -58 0
54 -57 58 0
c gate 59 53 -57 0
53 -59 0
-57 -59 0
-53 57 59 0
c gate 60 -58 -59 0
-58 -60 0
-59 -60 0
58 59 60 0
c gate 61 5 21 0
5 -61 0
21 -61 0
-5 -21 61 0
c gate 62 -34 -51 0
-34 -62 0
-51 -62 0
34 51 62 0
c gate 63 -61 62 0
-61 -63 0
62 -63 0
61 -62 63 0
c gate 64 -47 63 0
-47 -64 0
63 -64 0
47 -63 64 0
c gate 65 -50 64 0
-50 -65 0
64 -65 0
50 -64 65 0
c gate 66 -53 -65 0
-53 -66 0
-65 -66 0
53 65 66 0
c gate 67 8 24 0
8 -67 0
24 -67 0
-8 -24 67 0
c gate 68 -8 -24 0
-8 -68 0
-24 -68 0
8 24 68 0
c gate 69 -67 -68 0
-67 -69 0
-68 -69 0
67 68 69 0
c gate 70 -6 -22 0
-6 -70 0
-22 -70 0
6 22 70 0
c gate 71 4 20 0
4 -71 0
20 -71 0
-4 -20 71 0
c gate 72 -4 -20 0
-4 -72 0
-20 -72 0
4 20 72 0
c gate 73 3 19 0
3 -73 0
19 -73 0
-3 -19 73 0
c gate 74 1 17 0
1 -74 0
17 -74 0
-1 -17 74 0
c gate 75 2 18 0
2 -75 0
18 -75 0
-2 -18 75 0
c gate 76 -74 -75 0
-74 -76 0
-75 -76 0
74 75 76 0
c gate 77 -35 -40 0
-35 -77 0
-40 -77 0
35 40 77 0
c gate 78 -76 -77 0
-76 -78 0
-77 -78 0
76 77 78 0
c gate 79 -73 -78 0
-73 -79 0
-78 -79 0
73 78 79 0
c gate 80 -72 -79 0
-72 -80 0
-79 -80 0
72 79 80 0
c gate 81 -71 -80 0
-71 -81 0
-80 -81 0
71 80 81 0
c gate 82 -2 -18 0
-2 -82 0
-18 -82 0
2 18 82 0
c gate 83 -73 82 0
-73 -83 0
82 -83 0
73 -82 83 0
c gate 84 -71 83 0
-71 -84 0
83 -84 0
71 -83 84 0
c gate 85 -81 -84 0
-81 -85 0
-84 -85 0
81 84 85 0
c gate 86 -62 85 0
-62 -86 0
85 -86 0
62 -85 86 0
c gate 87 -61 -86 0
-61 -87 0
-86 -87 0
61 86 87 0
c gate 88 -50 87 0
-50 -88 0
87 -88 0
50 -87 88 0
c gate 89 -70 -88 0
-70 -89 0
-88 -89 0
70 88 89 0
c gate 90 -57 -89 0
-57 -90 0
-89 -90 0
57 89 90 0
c gate 91 69 90 0
69 -91 0
90 -91 0
-69 -90 91 0
c gate 92 -36 74 0
-36 -92 0
74 -92 0
36 -74 92 0
c gate 93 -39 92 0
-39 -93 0
92 -93 0
39 -92 93 0
c gate 94 62 -85 0
62 -94 0
-85 -94 0
-62 85 94 0
c gate 95 -86 -94 0
-86 -95 0
-94 -95 0
86 94 95 0
c gate 96 61 -81 0
61 -96 0
-81 -96 0
-61 81 96 0
c gate 97 -61 81 0
-61 -97 0
81 -97 0
61 -81 97 0
c gate 98 -96 -97 0
-96 -98 0
-97 -98 0
96 97 98 0
c gate 99 95 98 0
95 -99 0
98 -99 0
-95 -98 99 0
c gate 100 -95 -98 0
-95 -100 0
-98 -100 0
95 98 100 0
c gate 101 -99 -100 0
-99 -101 0
-100 -101 0
99 100 101 0
c gate 102 74 82 0
74 -102 0
82 -102 0
-74 -82 102 0
c gate 103 77 102 0
77 -103 0
102 -103 0
-77 -102 103 0
c gate 104 -71 -72 0
-71 -104 0
-72 -104 0
71 72 104 0
c gate 105 83 -104 0
83 -105 0
-104 -105 0
-83 104 105 0
c gate 106 -79 105 0
-79 -106 0
105 -106 0
79 -105 106 0
c gate 107 -103 -106 0
-103 -107 0
-106 -107 0
103 106 107 0
c gate 108 101 107 0
101 -108 0
107 -108 0
-101 -107 108 0
c gate 109 50 81 0
50 -109 0
81 -109 0
-50 -81 109 0
c gate 110 87 -109 0
87 -110 0
-109 -110 0
-87 109 110 0
c gate 111 108 -110 0
108 -111 0
-110 -111 0
-108 110 111 0
c gate 112 -90 111 0
-90 -112 0
111 -112 0
90 -111 112 0
c gate 113 93 112 0
93 -113 0
112 -113 0
-93 -112 113 0
c gate 114 -91 -113 0
-91 -114 0
-113 -114 0
91 113 114 0
c gate 115 16 -32 0
16 -115 0
-32 -115 0
-16 32 115 0
c gate 116 -16 32 0
-16 -116 0
32 -116 0
16 -32 116 0
c gate 117 -115 -116 0
-115 -117 0
-116 -117 0
115 116 117 0
c gate 118 15 31 0
15 -118 0
31 -118 0
-15 -31 118 0
c gate 119 -15 -31 0
-15 -119 0
-31 -119 0
15 31 119 0
c gate 120 -118 -119 0
-118 -120 0
-119 -120 0
118 119 120 0
c gate 121 -14 -30 0
-14 -121 0
-30 -121 0
14 30 121 0
c gate 122 14 30 0
14 -122 0
30 -122 0
-14 -30 122 0
c gate 123 -121 -122 0
-121 -123 0
-122 -123 0
121 122 123 0
c gate 124 -13 -29 0
-13 -124 0
-29 -124 0
13 29 124 0
c gate 125 13 29 0
13 -125 0
29 -125 0
-13 -29 125 0
c gate 126 -12 -28 0
-12 -126 0
-28 -126 0
12 28 126 0
c gate 127 -9 -25 0
-9 -127 0
-25 -127 0
9 25 127 0
c gate 128 -7 -23 0
-7 -128 0
-23 -128 0
7 23 128 0
c gate 129 -68 -128 0
-68 -129 0
-128 -129 0
68 128 129 0
c gate 130 -90 129 0
-90 -130 0
129 -130 0
90 -129 130 0
c gate 131 -67 -130 0
-67 -131 0
-130 -131 0
67 130 131 0
c gate 132 -127 -131 0
-127 -132 0
-131 -132 0
127 131 132 0
c gate 133 9 25 0
9 -133 0
25 -133 0
-9 -25 133 0
c gate 134 10 26 0
10 -134 0
26 -134 0
-10 -26 134 0
c gate 135 -133 -134 0
-133 -135 0
-134 -135 0
133 134 135 0
c gate 136 -132 135 0
-132 -136 0
135 -136 0
132 -135 136 0
c gate 137 -11 -27 0
-11 -137 0
-27 -137 0
11 27 137 0
c gate 138 -10 -26 0
-10 -138 0
-26 -138 0
10 26 138 0
c gate 139 -137 -138 0
-137 -139 0
-138 -139 0
137 138 139 0
c gate 140 -136 139 0
-136 -140 0
139 -140 0
136 -139 140 0
c gate 141 11 27 0
11 -141 0
27 -141 0
-11 -27 141 0
c gate 142 12 28 0
12 -142 0
28 -142 0
-12 -28 142 0
c gate 143 -141 -142 0
-141 -143 0
-142 -143 0
141 142 143 0
c gate 144 -140 143 0
-140 -144 0
143 -144 0
140 -143 144 0
c gate 145 -126 -144 0
-126 -145 0
-144 -145 0
126 144 145 0
c gate 146 -125 -145 0
-125 -146 0
-145 -146 0
125 145 146 0
c gate 147 -124 -146 0
-124 -147 0
-146 -147 0
124 146 147 0
c gate 148 123 -147 0
123 -148 0
-147 -148 0
-123 147 148 0
c gate 149 -121 -148 0
-121 -149 0
-148 -149 0
121 148 149 0
c gate 150 120 149 0
120 -150 0
149 -150 0
-120 -149 150 0
c gate 151 -118 -150 0
-118 -151 0
-150 -151 0
118 150 151 0
c gate 152 -117 151 0
-117 -152 0
151 -152 0
117 -151 152 0
c gate 153 117 -151 0
117 -153 0
-151 -153 0
-117 151 153 0
c gate 154 -152 -153 0
-152 -154 0
-153 -154 0
152 153 154 0
c gate 155 -125 -142 0
-125 -155 0
-142 -155 0
125 142 155 0
c gate 156 123 -155 0
123 -156 0
-155 -156 0
-123 155 156 0
c gate 157 -122 -156 0
-122 -157 0
-156 -157 0
122 156 157 0
c gate 158 -118 157 0
-118 -158 0
157 -158 0
118 -157 158 0
c gate 159 117 158 0
117 -159 0
158 -159 0
-117 -158 159 0
c gate 160 -117 -158 0
-117 -160 0
-158 -160 0
117 158 160 0
c gate 161 -159 -160 0
-159 -161 0
-160 -161 0
159 160 161 0
c gate 162 154 161 0
154 -162 0
161 -162 0
-154 -161 162 0
c gate 163 -154 -161 0
-154 -163 0
-161 -163 0
154 161 163 0
c gate 164 -162 -163 0
-162 -164 0
-163 -164 0
162 163 164 0
c gate 165 -124 -125 0
-124 -165 0
-125 -165 0
124 125 165 0
c gate 166 142 165 0
142 -166 0
165 -166 0
-142 -165 166 0
c gate 167 145 -166 0
145 -167 0
-166 -167 0
-145 166 167 0
c gate 168 120 -157 0
120 -168 0
-157 -168 0
-120 157 168 0
c gate 169 -149 -168 0
-149 -169 0
-168 -169 0
149 168 169 0
c gate 170 -150 -169 0
-150 -170 0
-169 -170 0
150 169 170 0
c gate 171 149 157 0
149 -171 0
157 -171 0
-149 -157 171 0
c gate 172 -170 -171 0
-170 -172 0
-171 -172 0
170 171 172 0
c gate 173 -167 172 0
-167 -173 0
172 -173 0
167 -172 173 0
c gate 174 164 173 0
164 -174 0
173 -174 0
-164 -173 174 0
c gate 175 114 174 0
114 -175 0
174 -175 0
-114 -174 175 0
c gate 176 -137 -141 0
-137 -176 0
-141 -176 0
137 141 176 0
c gate 177 -10 26 0
-10 -177 0
26 -177 0
10 -26 177 0
c gate 178 10 -26 0
10 -178 0
-26 -178 0
-10 26 178 0
c gate 179 -177 -178 0
-177 -179 0
-178 -179 0
177 178 179 0
c gate 180 176 -179 0
176 -180 0
-179 -180 0
-176 179 180 0
c gate 181 -126 -142 0
-126 -181 0
-142 -181 0
126 142 181 0
c gate 182 -127 -133 0
-127 -182 0
-133 -182 0
127 133 182 0
c gate 183 181 182 0
181 -183 0
182 -183 0
-181 -182 183 0
c gate 184 180 183 0
180 -184 0
183 -184 0
-180 -183 184 0
c gate 185 91 184 0
91 -185 0
184 -185 0
-91 -184 185 0
c gate 186 91 -185 0
91 -186 0
-185 -186 0
-91 185 186 0
c gate 187 174 -186 0
174 -187 0
-186 -187 0
-174 186 187 0
c gate 188 -123 155 0
-123 -188 0
155 -188 0
123 -155 188 0
c gate 189 -156 -188 0
-156 -189 0
-188 -189 0
156 188 189 0
c gate 190 -123 147 0
-123 -190 0
147 -190 0
123 -147 190 0
c gate 191 -148 -190 0
-148 -191 0
-190 -191 0
148 190 191 0
c gate 192 189 191 0
189 -192 0
191 -192 0
-189 -191 192 0
c gate 193 -189 -191 0
-189 -193 0
-191 -193 0
189 191 193 0
c gate 194 145 -165 0
145 -194 0
-165 -194 0
-145 165 194 0
c gate 195 -193 -194 0
-193 -195 0
-194 -195 0
193 194 195 0
c gate 196 -192 -195 0
-192 -196 0
-195 -196 0
192 195 196 0
c gate 197 -170 -196 0
-170 -197 0
-196 -197 0
170 196 197 0
c gate 198 -162 -197 0
-162 -198 0
-197 -198 0
162 197 198 0
c gate 199 -163 -198 0
-163 -199 0
-198 -199 0
163 198 199 0
c gate 200 -187 199 0
-187 -200 0
199 -200 0
187 -199 200 0
c gate 201 -175 -200 0
-175 -201 0
-200 -201 0
175 200 201 0
c gate 202 -9 25 0
-9 -202 0
25 -202 0
9 -25 202 0
c gate 203 -55 -58 0
-55 -203 0
-58 -203 0
55 58 203 0
c gate 204 -69 -203 0
-69 -204 0
-203 -204 0
69 203 204 0
c gate 205 8 -24 0
8 -205 0
-24 -205 0
-8 24 205 0
c gate 206 9 -25 0
9 -206 0
-25 -206 0
-9 25 206 0
c gate 207 -205 -206 0
-205 -207 0
-206 -207 0
205 206 207 0
c gate 208 -204 207 0
-204 -208 0
207 -208 0
204 -207 208 0
c gate 209 -202 -208 0
-202 -209 0
-208 -209 0
202 208 209 0
c gate 210 179 -209 0
179 -210 0
-209 -210 0
-179 209 210 0
c gate 211 -177 -210 0
-177 -211 0
-210 -211 0
177 210 211 0
c gate 212 -176 -211 0
-176 -212 0
-211 -212 0
176 211 212 0
c gate 213 -120 -165 0
-120 -213 0
-165 -213 0
120 165 213 0
c gate 214 117 -181 0
117 -214 0
-181 -214 0
-117 181 214 0
c gate 215 -123 214 0
-123 -215 0
214 -215 0
123 -214 215 0
c gate 216 213 215 0
213 -216 0
215 -216 0
-213 -215 216 0
c gate 217 212 216 0
212 -217 0
216 -217 0
-212 -216 217 0
c gate 218 179 -207 0
179 -218 0
-207 -218 0
-179 207 218 0
c gate 219 -178 -218 0
-178 -219 0
-218 -219 0
178 218 219 0
c gate 220 176 -219 0
176 -220 0
-219 -220 0
-176 219 220 0
c gate 221 176 211 0
176 -221 0
211 -221 0
-176 -211 221 0
c gate 222 -212 -221 0
-212 -222 0
-221 -222 0
212 221 222 0
c gate 223 -220 -222 0
-220 -223 0
-222 -223 0
220 222 223 0
c gate 224 -179 207 0
-179 -224 0
207 -224 0
179 -207 224 0
c gate 225 -218 -224 0
-218 -225 0
-224 -225 0
218 224 225 0
c gate 226 -179 209 0
-179 -226 0
209 -226 0
179 -209 226 0
c gate 227 -210 -226 0
-210 -227 0
-226 -227 0
210 226 227 0
c gate 228 225 227 0
225 -228 0
227 -228 0
-225 -227 228 0
c gate 229 -225 -227 0
-225 -229 0
-227 -229 0
225 227 229 0
c gate 230 -182 204 0
-182 -230 0
204 -230 0
182 -204 230 0
c gate 231 -58 -204 0
-58 -231 0
-204 -231 0
58 204 231 0
c gate 232 -58 66 0
-58 -232 0
66 -232 0
58 -66 232 0
c gate 233 -63 232 0
-63 -233 0
232 -233 0
63 -232 233 0
c gate 234 -117 -164 0
-117 -234 0
-164 -234 0
117 164 234 0
c gate 235 233 -234 0
233 -235 0
-234 -235 0
-233 234 235 0
c gate 236 -201 235 0
-201 -236 0
235 -236 0
201 -235 236 0
c gate 237 -158 233 0
-158 -237 0
233 -237 0
158 -233 237 0
c gate 238 152 237 0
152 -238 0
237 -238 0
-152 -237 238 0
c gate 239 64 232 0
64 -239 0
232 -239 0
-64 -232 239 0
c gate 240 -59 -239 0
-59 -240 0
-239 -240 0
59 239 240 0
c gate 241 -238 240 0
-238 -241 0
240 -241 0
238 -240 241 0
c gate 242 -235 241 0
-235 -242 0
241 -242 0
235 -241 242 0
c gate 243 -236 -242 0
-236 -243 0
-242 -243 0
236 242 243 0
c gate 244 231 -243 0
231 -244 0
-243 -244 0
-231 243 244 0
c gate 245 -230 -244 0
-230 -245 0
-244 -245 0
230 244 245 0
c gate 246 -229 -245 0
-229 -246 0
-245 -246 0
229 245 246 0
c gate 247 -228 -246 0
-228 -247 0
-246 -247 0
228 246 247 0
c gate 248 -223 -247 0
-223 -248 0
-247 -248 0
223 247 248 0
c gate 249 -211 220 0
-211 -249 0
220 -249 0
211 -220 249 0
c gate 250 -212 -249 0
-212 -250 0
-249 -250 0
212 249 250 0
c gate 251 -248 250 0
-248 -251 0
250 -251 0
248 -250 251 0
c gate 252 -217 -251 0
-217 -252 0
-251 -252 0
217 251 252 0
c gate 253 -201 252 0
-201 -253 0
252 -253 0
201 -252 253 0
c gate 254 -112 -185 0
-112 -254 0
-185 -254 0
112 185 254 0
c gate 255 174 -254 0
174 -255 0
-254 -255 0
-174 254 255 0
c gate 256 199 -255 0
199 -256 0
-255 -256 0
-199 255 256 0
c gate 257 -252 -256 0
-252 -257 0
-256 -257 0
252 256 257 0
c gate 258 -253 -257 0
-253 -258 0
-257 -258 0
253 257 258 0
c gate 259 -63 258 0
-63 -259 0
258 -259 0
63 -258 259 0
c gate 260 -47 -252 0
-47 -260 0
-252 -260 0
47 252 260 0
c gate 261 47 252 0
47 -261 0
252 -261 0
-47 -252 261 0
c gate 262 63 -261 0
63 -262 0
-261 -262 0
-63 261 262 0
c gate 263 -260 262 0
-260 -263 0
262 -263 0
260 -262 263 0
c gate 264 -259 -263 0
-259 -264 0
-263 -264 0
259 263 264 0
c gate 265 66 264 0
66 -265 0
264 -265 0
-66 -264 265 0
c gate 266 -66 252 0
-66 -266 0
252 -266 0
66 -252 266 0
c gate 267 -265 -266 0
-265 -267 0
-266 -267 0
265 266 267 0
c gate 268 60 -267 0
60 -268 0
-267 -268 0
-60 267 268 0
c gate 269 -60 267 0
-60 -269 0
267 -269 0
60 -267 269 0
c gate 270 -268 -269 0
-268 -270 0
-269 -270 0
268 269 270 0
c PO
270 0
